Optimal - objective value 115.00000000
      0 C                       115                       0
      1 x_0_0                    19                       0
      2 x_0_1       37.9999999999954                       0
      3 x_0_2                    47                       0
      4 x_0_3                    67                       0
      5 x_0_4                    70                       0
      7 x_1_1                    29                       0
      8 x_1_2       80.9999999999999                       0
      9 x_1_3       96.9999999999999                       0
     10 x_1_4                   110                       0
     11 x_2_0       66.9999999999999                       0
     12 x_2_1       67.9999999999999                       0
     13 x_2_2       70.9999999999999                       0
     14 x_2_3       76.9999999999999                       0
     15 x_2_4                   113                       0
     17 x_3_1                    31                       0
     18 x_3_2                    49                       0
     19 x_3_3       67.9999999999999                       0
     20 x_3_4                    81                       0
     21 x_4_0       9.00000000000002                       0
     22 x_4_1                    38                       0
     23 x_4_2                    47                       0
     24 x_4_3                    63                       0
     25 x_4_4       76.9999999999999                       0
     27 x_5_1                    19                       0
     28 x_5_2                    31                       0
     29 x_5_3       50.9999999999955                       0
     30 x_5_4       85.9999999999999                       0
     32 x_6_1                    43                       0
     33 x_6_2       70.9999999999999                       0
     34 x_6_3                    86                       0
     35 x_6_4       96.9999999999999                       0
     37 x_7_1                    20                       0
     38 x_7_2       40.9999999999954                       0
     39 x_7_3                    63                       0
     40 x_7_4                    68                       0
     44 y_0_1_3                   1                       0
     45 y_0_1_4                   1                       0
     52 y_0_3_1                   1                       0
     54 y_0_3_3                   1                       0
     55 y_0_3_4                   1                       0
     57 y_0_4_1                   1                       0
     58 y_0_4_2                   1                       0
     60 y_0_4_4                   1                       0
     61 y_0_5_0                   1                     469
     62 y_0_5_1                   1                       0
     65 y_0_5_4                   1                       0
     68 y_0_6_2                   1                       0
     72 y_0_7_1                   1                       0
     74 y_0_7_3                   1                       0
     76 y_1_2_0                   1                       0
     78 y_1_2_2                   1                       0
     81 y_1_3_0                   1                     469
     82 y_1_3_1                   1                       0
     83 y_1_3_2                   1                       0
     84 y_1_3_3                   1                       0
     86 y_1_4_0                   1                       0
     87 y_1_4_1                   1                       0
     88 y_1_4_2                   1                       0
     91 y_1_5_0                   1                       0
     92 y_1_5_1                   1                       0
     93 y_1_5_2                   1                       0
     96 y_1_6_0                   1                       0
     97 y_1_6_1                   1                       0
     98 y_1_6_2                   1                       0
    101 y_1_7_0                   1                       0
    102 y_1_7_1                   1                       0
    103 y_1_7_2                   1                       0
    104 y_1_7_3                   1                       0
    107 y_2_3_1                   1                       0
    109 y_2_3_3                   1                       0
    110 y_2_3_4                   1                       0
    111 y_2_4_0                   1                       0
    112 y_2_4_1                   1                       0
    113 y_2_4_2                   1                       0
    115 y_2_4_4                   1                       0
    116 y_2_5_0                   1                       0
    117 y_2_5_1                   1                       0
    118 y_2_5_2                   1                       0
    120 y_2_5_4                   1                       0
    121 y_2_6_0                   1                       0
    122 y_2_6_1                   1                       0
    123 y_2_6_2                   1                       0
    126 y_2_7_0                   1                     469
    127 y_2_7_1                   1                       0
    128 y_2_7_2                   1                       0
    129 y_2_7_3                   1                       0
    130 y_2_7_4                   1                       0
    131 y_3_4_0                   1                       0
    133 y_3_4_2                   1                       0
    136 y_3_5_0                   1                       0
    137 y_3_5_1                   1                       0
    138 y_3_5_2                   1                       0
    140 y_3_5_4                   1                       0
    141 y_3_6_0                   1                       0
    143 y_3_6_2                   1                       0
    146 y_3_7_0                   1                       0
    147 y_3_7_1                   1                       0
    148 y_3_7_2                   1                       0
    151 y_4_5_0                   1                       0
    152 y_4_5_1                   1                       0
    155 y_4_5_4                   1                       0
    158 y_4_6_2                   1                       0
    159 y_4_6_3                   1                       0
    162 y_4_7_1                   1                       0
    164 y_4_7_3                   1                       0
    168 y_5_6_2                   1                       0
    169 y_5_6_3                   1                       0
    172 y_5_7_1                   1                       0
    173 y_5_7_2                   1                       0
    174 y_5_7_3                   1                       0
    177 y_6_7_1                   1                       0
    179 y_6_7_3                   1                       0
    180 y_6_7_4                   1                       0
